
  32    4
  10   10   10   10

   0   0   0   0   0   1 2 
   7   1   1   0   1   1 3 
   7   5   0   1   4   1 4 
   3   0   5   4   5   1 5 
   1   3   2   7   0   1 6 
   3   7   0   2   6   1 7 
   2   9   1   0   4   1 8 
   9   9   5   3   0   2 31 9 
  10   2   0   5   4   1 10 
   3   2   0   2   2   1 11 
   7   1   3   2   0   1 12 
   9   7   0   5   4   2 30 13 
   7   2   0   2   2   1 14 
   5   3   0   4   7   1 15 
  10   2   5   0   2   1 16 
   4   2   8   0   5   1 17 
   1   7   5   5   0   1 18 
   6   2   3   0   4   1 19 
   6   3   7   0   5   1 20 
   6   0   3   4   1   2 29 21 
   7   2   4   2   0   1 22 
   4   3   2   5   0   1 23 
   3   5   0   4   6   1 24 
   1   5   0   3   7   1 25 
   7   5   3   6   0   1 26 
   4   5   0   4   3   1 27 
   3   5   6   0   1   1 28 
   8   3   0   5   3   1 32
   1   5   7   0   8   1 32
  10   2   3   5   0   1 32
   3   5   3   8   0   1 32
   0   0   0   0   0   0 
